GLPSOL: GLPK LP/MIP Solver, v4.65
Parameter(s) specified in the command line:
 --model solver_drone_test.mod --data solver_drone.dat --output solution.log
 --log cmd_output.log --tmlim 10
Reading model section from solver_drone_test.mod...
41 lines were read
Reading data section from solver_drone.dat...
62 lines were read
Generating f...
Generating package_deliverd_once...
Generating package_well_delivered...
Generating time_spent_flying...
Generating autonomy_not_exceeded...
Generating check_time_max...
Model has been successfully generated
GLPK Integer Optimizer, v4.65
4275 rows, 4208 columns, 12832 non-zeros
4208 integer variables, 4200 of which are binary
Preprocessing...
74 rows, 4208 columns, 8631 non-zeros
4208 integer variables, 4200 of which are binary
Scaling...
 A: min|aij| =  1.000e+00  max|aij| =  2.153e+04  ratio =  2.153e+04
GM: min|aij| =  8.821e-01  max|aij| =  1.134e+00  ratio =  1.285e+00
EQ: min|aij| =  7.844e-01  max|aij| =  1.000e+00  ratio =  1.275e+00
2N: min|aij| =  1.000e+00  max|aij| =  1.314e+00  ratio =  1.314e+00
Constructing initial basis...
Size of triangular part is 74
Solving LP relaxation...
GLPK Simplex Optimizer, v4.65
74 rows, 4208 columns, 8631 non-zeros
      0: obj =   0.000000000e+00 inf =   9.370e+03 (1)
     16: obj =   2.998275000e+05 inf =   0.000e+00 (0)
*   128: obj =   8.566500000e+04 inf =   4.091e-12 (0)
OPTIMAL LP SOLUTION FOUND
Integer optimization begins...
Long-step dual simplex will be used
+   128: mip =     not found yet >=              -inf        (1; 0)
+   456: >>>>>   9.849000000e+04 >=   8.566500000e+04  13.0% (110; 0)
+   698: >>>>>   9.744000000e+04 >=   8.566500000e+04  12.1% (120; 50)
+   814: >>>>>   9.628500000e+04 >=   8.566500000e+04  11.0% (152; 65)
+  1505: >>>>>   9.586500000e+04 >=   8.566500000e+04  10.6% (282; 79)
+  6188: >>>>>   9.576000000e+04 >=   8.566500000e+04  10.5% (1350; 166)
+  7015: >>>>>   9.460500000e+04 >=   8.566500000e+04   9.4% (1551; 187)
+  7893: >>>>>   9.450000000e+04 >=   8.566500000e+04   9.3% (1705; 310)
+ 17166: mip =   9.450000000e+04 >=   8.566500000e+04   9.3% (3758; 471)
+ 17923: mip =   9.450000000e+04 >=   8.566500000e+04   9.3% (3961; 477)
TIME LIMIT EXCEEDED; SEARCH TERMINATED
Time used:   10.0 secs
Memory used: 29.7 Mb (31179702 bytes)
The package 1 is delivered by the drone 7 to the house 18
The package 2 is delivered by the drone 7 to the house 18
The package 3 is delivered by the drone 7 to the house 17
The package 4 is delivered by the drone 6 to the house 4
The package 5 is delivered by the drone 1 to the house 4
The package 6 is delivered by the drone 3 to the house 5
The package 7 is delivered by the drone 5 to the house 7
The package 8 is delivered by the drone 3 to the house 10
The package 9 is delivered by the drone 4 to the house 3
The package 10 is delivered by the drone 5 to the house 12
The package 11 is delivered by the drone 5 to the house 5
The package 12 is delivered by the drone 6 to the house 14
The package 13 is delivered by the drone 3 to the house 13
The package 14 is delivered by the drone 2 to the house 20
The package 15 is delivered by the drone 4 to the house 11
The package 16 is delivered by the drone 5 to the house 15
The package 17 is delivered by the drone 1 to the house 12
The package 18 is delivered by the drone 2 to the house 20
The package 19 is delivered by the drone 7 to the house 13
The package 20 is delivered by the drone 2 to the house 8
The package 21 is delivered by the drone 4 to the house 5
The package 22 is delivered by the drone 6 to the house 4
The package 23 is delivered by the drone 2 to the house 12
The package 24 is delivered by the drone 6 to the house 16
The package 25 is delivered by the drone 1 to the house 13
The package 26 is delivered by the drone 4 to the house 7
The package 27 is delivered by the drone 3 to the house 14
The package 28 is delivered by the drone 1 to the house 12
The package 29 is delivered by the drone 2 to the house 17
The package 30 is delivered by the drone 7 to the house 13
Model has been successfully processed
Writing MIP solution to 'solution.log'...
